NAME : in_house_8_20
TYPE : TSP
DIMENSION : 8
EDGE_WEIGHT_TYPE : EXPLICIT
EDGE_WEIGHT_FORMAT : UPPER_ROW
COMMENT : INVERSION_SHIFT=6
EDGE_WEIGHT_SECTION
64
33
25
27
26
64
27
52
19
50
9
62
37
54
36
61
44
33
16
13
4
3
57
48
43
62
14
13
